instances/pdptw_sl_2016/R11_6_4.txt
[Vehicles]
1 20 1
2 20 1
3 20 0
4 20 0

[Requests]
2 1
3 2
4 2
5 1
6 1
7 2
8 1
9 1
10 1
11 2
12 1

[Fixed Lines]
24 26 30 60 90 120 150 180 210 240 270 300 330 360 390 420 450 480 510 540 570 |
26 24 30 60 90 120 150 180 210 240 270 300 330 360 390 420 450 480 510 540 570 |
25 26 30 60 90 120 150 180 210 240 270 300 330 360 390 420 450 480 510 540 570 |
26 25 30 60 90 120 150 180 210 240 270 300 330 360 390 420 450 480 510 540 570 |
24 25 30 60 90 120 150 180 210 240 270 300 330 360 390 420 450 480 510 540 570 |
25 24 30 60 90 120 150 180 210 240 270 300 330 360 390 420 450 480 510 540 570 |

[Nodes]
0 0 600 0
1 0 600 0
2 92 149 2
3 219 257 2
4 247 295 1
5 0 78 1
6 196 284 3
7 5 52 1
8 161 213 2
9 0 65 2
10 117 194 1
11 301 382 1
12 78 154 3
13 440 506 1
14 233 306 1
15 449 521 3
16 407 465 3
17 232 273 3
18 0 58 3
19 371 424 2
20 332 400 1
21 421 469 3
22 458 535 3
23 430 471 2
24 0 600 1
25 0 600 1
26 0 600 1

[Positions]
40 90
170 100
34 153
85 18
60 22
37 120
62 77
49 73
81 91
189 111
133 46
128 168
82 14
153 159
58 29
105 108
137 12
58 64
58 71
73 34
29 21
15 54
147 140
36 159
25 30
106 154
178 24
