instances/pdptw_sl_sol/PDPTW-SL Solutions Homogeneous costs/3SLs/R11_6_4.sol
Objective function value: 687.3636698088417

Vehicle 3: 1 (0.0)    12 (89.0)    3 (221.0)    4 (248.0)    14 (256.28)    23 (432.0)    15 (520.8)    1 (600.0)    
Vehicle 4: 1 (0.0)    9 (23.0)    10 (118.0)    53 (169.09)    54 (170.09)    49 (419.61)    16 (465.33)    1 (600.0)    
Vehicle 2: 0 (0.0)    5 (31.0)    2 (94.0)    38 (167.01)    11 (302.0)    13 (441.0)    22 (463.92)    0 (600.0)    
Vehicle 1: 0 (0.0)    7 (20.0)    18 (32.22)    8 (163.0)    6 (199.0)    17 (235.0)    31 (334.12)    32 (335.12)    20 (345.97)    19 (393.85)    21 (458.2)    0 (600.0)    

Scheduled lines' departures:

Request 9 from transfer node 26(53) to 24(31) at time 180 travel time 153.12
Request 10 from transfer node 26(54) to 24(32) at time 180 travel time 153.12
Request 5 from transfer node 25(38) to 26(49) at time 270 travel time 148.61

#Let transfer node X(x), where X is the physical transfer node and x is its replication related to request y. Routing considers replicated transfer nodes only, and not physical ones.